c ---- [ banner ] ------------------------------------------------------------
c
c Kissat SAT Solver
c 
c Copyright (c) 2021-2024 Armin Biere University of Freiburg
c Copyright (c) 2019-2021 Armin Biere Johannes Kepler University Linz
c 
c Version 4.0.1 43f02cf3e992cb44653b35e5cb26f93281552ae0
c gcc (Ubuntu 13.2.0-23ubuntu4) 13.2.0 -W -Wall -O3 -DNDEBUG
c Thu Sep 12 12:27:46 CEST 2024 Linux abryzen9 6.8.0-41-generic x86_64
c
c ---- [ parsing ] -----------------------------------------------------------
c
c opened and reading DIMACS file:
c
c   /data/artifact/AMulet2.0_artifact/exp4/cnf_resyn3_64/64_64_U1_4to2_LF_Multgen_resyn3.cnf
c
c parsed 'p cnf 19222 73793' header
c closing input after reading 1424001 bytes (1 MB)
c finished parsing after 0.01 seconds
c
c ---- [ options ] -----------------------------------------------------------
c
c --stable=0                       (different from default '1')
c
c ---- [ solving ] -----------------------------------------------------------
c
c  seconds switched rate     size/glue tier1  binary          remaining
c         MB reductions conflicts size  tier2     irredundant
c          level restarts redundant glue  trail          variables
c
c *  0.01  7 0 0 0  0 0   0   0 0.0 0 0 0 0 0% 11931 61860 19219 100%
c (  0.02  8 0 0 0  0 0   0   0 0.0 0 0 0 0 0% 11931 61860 19219 100%
c .  0.02  8 0 0 0  0 0   0   0 0.0 0 0 0 0 0% 11927 61860 19219 100%
c c  0.05 12 0 0 0  0 0   0   0 0.0 0 0 0 0 0% 12111 61553 19104 99%
c d  0.05 12 0 0 0  0 0   0   0 0.0 0 0 0 0 0% 11873 61553 19104 99%
c =  0.08 12 0 0 0  0 0   0   0 0.0 0 0 0 0 0% 11850 61549 19100 99%
c d  0.08 12 0 0 0  0 0   0   0 0.0 0 0 0 0 0% 11842 61549 19100 99%
c f  0.11 12 0 0 0  0 0   0   0 0.0 0 0 0 0 0% 11832 61373 19132 100%
c e  0.16 17 0 0 0  0 0   0   0 0.0 0 0 0 0 0% 5007 64985 13632 71%
c )  0.16 17 0 0 0  0 0   0   0 0.0 0 0 0 0 0% 5007 64985 13632 71%
c {  0.17 17 0 0 0  0 0   0   0 0.0 0 0 2 6 0% 5007 64985 13632 71%
c -  0.25 17 100 0 1 373 32 1000 763 1.8 8 5 4 10 18% 5101 64985 13632 71%
c -  0.32 17 97 0 2 592 30 2000 1516 1.9 9 5 3 10 18% 5109 64983 13632 71%
c c  0.38 16 95 0 2 686 29 2511 1991 1.8 9 5 3 10 18% 5173 64869 13601 71%
c d  0.38 16 95 0 2 686 29 2511 1983 1.8 9 5 3 10 18% 5111 64869 13601 71%
c b  0.38 16 95 0 2 686 29 2511 1983 1.8 9 5 3 10 18% 5111 64869 13599 71%
c u  0.39 16 95 0 2 686 29 2511 1366 1.8 9 5 3 10 18% 5095 64869 13599 71%
c v  0.40 16 95 0 2 686 29 2511 1251 1.8 9 5 3 10 18% 5095 64869 13599 71%
c w  0.40 16 95 0 2 686 29 2511 1248 1.8 9 5 3 10 18% 5095 64869 13599 71%
c x  0.41 16 95 0 2 686 29 2511 1246 1.8 9 5 3 10 18% 5165 64573 13595 71%
c
c  seconds  switched   rate       size/glue tier1    binary         remaining
c         MB reductions conflicts      size  tier2      irredundant
c          level restarts    redundant   glue    trail         variables
c
c =  0.45 16 95 0 2 686 29 2511 1246 1.8 9 5 3 10 18% 5197 64533 13571 71%
c d  0.45 16 95 0 2 686 29 2511 1244 1.8 9 5 3 10 18% 5171 64508 13566 71%
c t  0.46 16 95 0 2 686 29 2511 1244 1.8 9 5 3 10 18% 5092 64508 13566 71%
c f  0.47 16 95 0 2 686 29 2511 1244 1.8 9 5 3 10 18% 5404 64038 13722 71%
c c  0.49 16 95 0 2 686 29 2511 1244 1.8 9 5 3 10 18% 5411 64013 13712 71%
c d  0.49 16 95 0 2 686 29 2511 1244 1.8 9 5 3 10 18% 5391 64013 13712 71%
c u  0.50 16 95 0 2 686 29 2511 1199 1.8 9 5 3 10 18% 5387 64013 13712 71%
c v  0.51 16 95 0 2 686 29 2511 1097 1.8 9 5 3 10 18% 5387 64013 13712 71%
c w  0.51 16 95 0 2 686 29 2511 1092 1.8 9 5 3 10 18% 5387 64013 13712 71%
c x  0.52 16 95 0 2 686 29 2511 1092 1.8 9 5 3 10 18% 5396 63988 13711 71%
c t  0.56 16 95 0 2 686 29 2511 1092 1.8 9 5 3 10 18% 5389 63985 13711 71%
c f  0.57 16 95 0 2 686 29 2511 1092 1.8 9 5 3 10 18% 5782 63394 13908 72%
c i  0.57 16 95 0 2 686 29 2511 1092 1.8 9 5 3 10 18% 5782 63394 13908 72%
c -  0.64 16 101 0 3 839 27 3414 1650 1.9 10 5 3 10 20% 5782 63394 13908 72%
c -  0.80 16 109 0 4 1137 27 5147 2816 1.9 11 6 3 10 23% 5785 63394 13908 72%
c i  0.80 16 109 0 4 1155 27 5244 2891 2.0 11 6 3 10 23% 5790 63394 13907 72%
c -  0.93 16 114 0 5 1353 24 7147 3980 2.0 11 6 3 9 24% 5811 63392 13907 72%
c d  0.98 16 117 0 5 1425 24 7735 4538 2.0 11 6 3 9 24% 5813 63383 13905 72%
c d  0.98 16 117 0 5 1425 24 7735 4538 2.0 11 6 3 9 24% 5809 63383 13903 72%
c b  0.98 16 117 0 5 1425 24 7735 4538 2.0 11 6 3 9 24% 5809 63383 13901 72%
c
c  seconds   switched    rate       size/glue tier1    binary         remaining
c         MB  reductions  conflicts       size  tier2     irredundant
c           level  restarts    redundant    glue   trail         variables
c
c u  0.99 16 117 0 5 1425 24 7735 3222 2.0 11 6 3 9 24% 5821 63383 13899 72%
c v  1.01 16 117 0 5 1425 24 7735 2828 2.0 11 6 3 9 24% 5822 63383 13899 72%
c w  1.02 16 117 0 5 1425 24 7735 2818 2.0 11 6 3 9 24% 5822 63383 13899 72%
c d  1.03 16 117 0 5 1425 24 7735 2809 2.0 11 6 3 9 24% 5838 63349 13898 72%
c d  1.03 16 117 0 5 1425 24 7735 2808 2.0 11 6 3 9 24% 5819 63347 13889 72%
c t  1.04 16 117 0 5 1425 24 7735 2808 2.0 11 6 3 9 24% 5807 63347 13889 72%
c f  1.05 16 117 0 5 1425 24 7735 2808 2.0 11 6 3 9 24% 6695 62005 14333 75%
c c  1.08 16 117 0 5 1425 24 7735 2808 2.0 11 6 3 9 24% 6701 61978 14327 75%
c d  1.08 16 117 0 5 1425 24 7735 2808 2.0 11 6 3 9 24% 6689 61978 14327 75%
c u  1.09 16 117 0 5 1425 24 7735 2669 2.0 11 6 3 9 24% 6689 61978 14327 75%
c v  1.11 16 117 0 5 1425 24 7735 2574 2.0 11 6 3 9 24% 6689 61978 14327 75%
c w  1.12 16 117 0 5 1425 24 7735 2567 2.0 11 6 3 9 24% 6689 61978 14327 75%
c x  1.13 16 117 0 5 1425 24 7735 2567 2.0 11 6 3 9 24% 6699 61715 14327 75%
c t  1.19 16 117 0 5 1425 24 7735 2567 2.0 11 6 3 9 24% 6687 61715 14327 75%
c f  1.21 16 117 0 5 1425 24 7735 2567 2.0 11 6 3 9 24% 7957 59810 14962 78%
c i  1.21 16 117 0 5 1425 24 7735 2567 2.0 11 6 3 9 24% 7957 59810 14962 78%
c i  1.29 16 118 0 5 1548 23 8937 3644 2.0 12 6 3 9 25% 7968 59809 14961 78%
c i  1.29 16 118 0 5 1548 23 8943 3644 2.0 12 6 3 9 25% 7971 59809 14960 78%
c -  1.32 16 119 0 6 1572 23 9384 3344 2.0 11 6 3 9 26% 7965 59809 14960 78%
c o  1.37 16 119 0 6 1615 22 10047 3976 2.0 12 6 3 9 26% 7967 59808 14960 78%
c
c  seconds   switched    rate        size/glue tier1    binary         remaining
c         MB  reductions   conflicts       size  tier2     irredundant
c           level  restarts     redundant    glue   trail         variables
c
c -  1.49 16 117 0 7 1769 21 11834 4745 2.0 12 6 3 9 26% 7980 59808 14960 78%
c s  1.56 16 118 0 7 1811 21 12555 5421 2.0 12 6 3 9 27% 7992 59620 14960 78%
c e  1.63 16 118 0 7 1811 21 12555 5421 2.0 12 6 3 9 27% 6836 60264 13630 71%
c s  1.64 16 118 0 7 1811 21 12555 5421 2.0 12 6 3 9 27% 6849 59915 13630 71%
c e  1.64 16 118 0 7 1811 21 12555 5421 2.0 12 6 3 9 27% 6769 59929 13586 71%
c ^  1.64 16 118 0 7 1811 21 12555 5421 2.0 12 6 3 9 27% 6769 59929 13586 71%
c i  1.78 16 119 0 7 1942 20 14235 5563 2.0 11 6 3 9 28% 6778 59929 13585 71%
c -  1.80 16 120 0 8 1949 20 14480 4901 1.9 11 6 3 9 28% 6777 59929 13585 71%
c d  1.94 16 119 0 8 2061 20 15852 6197 1.9 11 6 3 9 28% 6778 59911 13580 71%
c d  1.94 16 119 0 8 2061 20 15852 6194 1.9 11 6 3 9 28% 6773 59911 13578 71%
c u  1.96 16 119 0 8 2061 20 15852 4589 1.9 11 6 3 9 28% 6776 59911 13578 71%
c v  1.97 16 119 0 8 2061 20 15852 4331 1.9 11 6 3 9 28% 6776 59911 13578 71%
c w  1.98 16 119 0 8 2061 20 15852 4323 1.9 11 6 3 9 28% 6776 59911 13578 71%
c x  1.99 16 119 0 8 2061 20 15852 4323 1.9 11 6 3 9 28% 6794 59842 13578 71%
c t  2.00 16 119 0 8 2061 20 15852 4323 1.9 11 6 3 9 28% 6774 59842 13578 71%
c f  2.02 16 119 0 8 2061 20 15852 4323 1.9 11 6 3 9 28% 6861 59601 13635 71%
c u  2.04 16 119 0 8 2061 20 15852 3969 1.9 11 6 3 9 28% 6862 59601 13635 71%
c v  2.06 16 119 0 8 2061 20 15852 3685 1.9 11 6 3 9 28% 6862 59601 13635 71%
c w  2.07 16 119 0 8 2061 20 15852 3676 1.9 11 6 3 9 28% 6862 59601 13635 71%
c x  2.08 16 119 0 8 2061 20 15852 3676 1.9 11 6 3 9 28% 6868 59586 13635 71%
c
c  seconds   switched    rate        size/glue tier1    binary         remaining
c         MB  reductions   conflicts       size  tier2     irredundant
c           level  restarts     redundant    glue   trail         variables
c
c t  2.09 16 119 0 8 2061 20 15852 3676 1.9 11 6 3 9 28% 6865 59586 13635 71%
c f  2.11 16 119 0 8 2061 20 15852 3676 1.9 11 6 3 9 28% 6869 59576 13637 71%
c -  2.23 16 119 0 9 2154 19 17308 4132 1.9 11 6 3 9 29% 6880 59574 13637 71%
c o  2.47 16 119 0 9 2380 19 20053 6668 1.9 11 6 3 9 29% 6891 59573 13637 71%
c i  2.47 16 119 0 9 2383 18 20117 6702 1.9 11 6 3 9 29% 6899 59573 13636 71%
c -  2.49 16 119 0 10 2404 18 20309 5759 1.9 11 6 3 9 29% 6895 59573 13636 71%
c -  2.70 16 118 0 11 2636 18 23472 7297 1.9 11 6 3 9 29% 6916 59569 13636 71%
c s  2.78 16 118 0 11 2732 17 25126 8781 1.9 11 6 3 9 29% 6938 59452 13636 71%
c e  2.87 16 118 0 11 2732 17 25126 8781 1.9 11 6 3 9 29% 3328 64759 11577 60%
c s  2.88 16 118 0 11 2732 17 25126 8781 1.9 11 6 3 9 29% 3346 64550 11577 60%
c e  2.89 16 118 0 11 2732 17 25126 8781 1.9 11 6 3 9 29% 3313 64591 11562 60%
c ^  2.89 16 118 0 11 2732 17 25126 8781 1.9 11 6 3 9 29% 3313 64591 11562 60%
c -  2.98 16 116 0 12 2817 17 26788 6304 1.9 11 6 3 9 28% 3320 64590 11562 60%
c c  3.02 16 115 0 12 2835 17 27043 6543 1.9 11 6 3 9 28% 3345 64531 11547 60%
c d  3.02 16 115 0 12 2835 17 27043 6528 1.9 11 6 3 9 28% 3315 64531 11547 60%
c u  3.04 16 115 0 12 2835 17 27043 4316 1.9 11 6 3 9 28% 3307 64531 11547 60%
c v  3.06 16 115 0 12 2835 17 27043 3864 1.9 11 6 3 9 28% 3307 64531 11547 60%
c w  3.07 16 115 0 12 2835 17 27043 3860 1.9 11 6 3 9 28% 3307 64531 11547 60%
c d  3.16 16 115 0 12 2835 17 27043 3858 1.9 11 6 3 9 28% 3305 64531 11546 60%
c t  3.17 16 115 0 12 2835 17 27043 3858 1.9 11 6 3 9 28% 3295 64531 11546 60%
c
c  seconds   switched     rate        size/glue tier1    binary         remaining
c         MB   reductions   conflicts       size  tier2     irredundant
c           level   restarts     redundant    glue   trail         variables
c
c f  3.19 16 115 0 12 2835 17 27043 3858 1.9 11 6 3 9 28% 3346 64378 11578 60%
c u  3.21 16 115 0 12 2835 17 27043 3626 1.9 11 6 3 9 28% 3352 64378 11578 60%
c v  3.23 16 115 0 12 2835 17 27043 3536 1.9 11 6 3 9 28% 3352 64378 11578 60%
c w  3.24 16 115 0 12 2835 17 27043 3536 1.9 11 6 3 9 28% 3352 64378 11578 60%
c x  3.27 16 115 0 12 2835 17 27043 3531 1.9 11 6 3 9 28% 3386 64190 11578 60%
c d  3.27 16 115 0 12 2835 17 27043 3527 1.9 11 6 3 9 28% 3385 64185 11574 60%
c d  3.27 16 115 0 12 2835 17 27043 3527 1.9 11 6 3 9 28% 3381 64185 11572 60%
c t  3.28 16 115 0 12 2835 17 27043 3527 1.9 11 6 3 9 28% 3369 64185 11572 60%
c f  3.30 16 115 0 12 2835 17 27043 3527 1.9 11 6 3 9 28% 3370 64178 11574 60%
c -  3.58 16 116 0 13 3120 17 30254 5535 1.9 11 6 3 9 29% 3367 64178 11574 60%
c -  3.82 16 117 0 14 3377 17 33859 7566 1.9 11 6 3 9 29% 3381 64177 11574 60%
c i  4.06 16 116 0 14 3729 17 36740 10256 1.8 11 6 3 9 29% 3389 64177 11573 60%
c i  4.07 16 116 0 14 3749 17 36888 10391 1.8 11 6 3 9 29% 3391 64177 11572 60%
c -  4.12 16 117 0 15 3800 17 37600 9330 1.8 11 6 3 9 29% 3395 64176 11572 60%
c o  4.29 16 117 0 15 4003 17 40475 11963 1.8 11 6 3 9 28% 3414 64176 11572 60%
c c  4.38 16 118 0 15 4079 17 41444 12859 1.9 11 6 3 9 28% 3441 64102 11554 60%
c d  4.39 16 118 0 15 4079 17 41444 12834 1.9 11 6 3 9 28% 3411 64096 11554 60%
c d  4.39 16 118 0 15 4079 17 41444 12834 1.9 11 6 3 9 28% 3405 64096 11551 60%
c u  4.41 16 118 0 15 4079 17 41444 11333 1.9 11 6 3 9 28% 3398 64096 11551 60%
c v  4.44 16 118 0 15 4079 17 41444 10882 1.9 11 6 3 9 28% 3398 64096 11551 60%
c
c  seconds   switched     rate         size/glue tier1    binary         remaining
c         MB   reductions   conflicts        size  tier2     irredundant
c           level   restarts      redundant    glue   trail         variables
c
c w  4.45 16 118 0 15 4079 17 41444 10875 1.9 11 6 3 9 28% 3398 64096 11551 60%
c x  4.48 16 118 0 15 4079 17 41444 10873 1.9 11 6 3 9 28% 3398 64070 11551 60%
c t  4.49 16 118 0 15 4079 17 41444 10873 1.9 11 6 3 9 28% 3394 64070 11551 60%
c f  4.50 16 118 0 15 4079 17 41444 10873 1.9 11 6 3 9 28% 3399 64056 11554 60%
c c  4.52 16 118 0 15 4079 17 41444 10873 1.9 11 6 3 9 28% 3401 64050 11553 60%
c d  4.53 16 118 0 15 4079 17 41444 10873 1.9 11 6 3 9 28% 3399 64050 11553 60%
c u  4.56 16 118 0 15 4079 17 41444 8611 1.9 11 6 3 9 28% 3408 64050 11553 60%
c v  4.61 16 118 0 15 4079 17 41444 7803 1.9 11 6 3 9 28% 3407 64050 11553 60%
c w  4.63 16 118 0 15 4079 17 41444 7789 1.9 11 6 3 9 28% 3407 64050 11553 60%
c d  4.63 16 118 0 15 4079 17 41444 7789 1.9 11 6 3 9 28% 3401 64050 11550 60%
c t  4.64 16 118 0 15 4079 17 41444 7789 1.9 11 6 3 9 28% 3399 64050 11550 60%
c -  4.65 16 118 0 16 4079 17 41472 6461 1.9 11 6 3 9 28% 3399 64050 11550 60%
c -  4.90 16 118 0 17 4331 17 45472 8660 1.8 11 6 3 9 28% 3434 64046 11550 60%
c i  4.93 16 118 0 17 4368 17 45793 8953 1.9 11 6 3 9 28% 3438 64046 11549 60%
c i  5.06 16 117 0 17 4521 16 47742 10663 1.8 11 6 3 9 28% 3448 64046 11548 60%
c i  5.09 16 117 0 17 4546 16 48178 11078 1.8 11 6 3 9 28% 3448 64046 11547 60%
c i  5.11 16 117 0 17 4569 16 48300 11191 1.8 11 6 3 9 28% 3450 64044 11546 60%
c -  5.25 18 117 0 18 4675 16 49595 10754 1.8 11 6 3 9 28% 3437 64044 11546 60%
c i  5.43 18 118 0 18 4780 17 50720 11805 1.8 11 6 3 9 28% 3444 64044 11545 60%
c s  5.64 18 118 0 18 4929 17 52363 13356 1.8 11 6 3 9 28% 3448 63965 11545 60%
c
c  seconds   switched     rate         size/glue tier1    binary         remaining
c         MB   reductions   conflicts        size  tier2     irredundant
c           level   restarts      redundant    glue   trail         variables
c
c e  5.77 18 118 0 18 4929 17 52363 13356 1.8 11 6 3 9 28% 1552 67846 10317 54%
c 2  5.77 18 118 0 18 4929 17 52363 13356 1.8 11 6 3 9 28% 1550 67846 10317 54%
c s  5.79 18 118 0 18 4929 17 52363 13356 1.8 11 6 3 9 28% 1559 67611 10317 54%
c e  5.80 18 118 0 18 4929 17 52363 13356 1.8 11 6 3 9 28% 1526 67648 10300 54%
c ^  5.80 18 118 0 18 4929 17 52363 13356 1.8 11 6 3 9 28% 1526 67648 10300 54%
c -  5.93 18 118 0 19 5122 17 53837 9273 1.8 11 6 2 9 28% 1531 67648 10300 54%
c -  6.35 18 118 0 20 5735 17 58197 11024 1.8 11 6 2 9 28% 1532 67648 10300 54%
c i  6.42 18 118 0 20 5831 17 59025 11796 1.8 11 6 2 9 28% 1533 67648 10299 54%
c i  6.42 18 118 0 20 5831 17 59056 11805 1.8 11 6 2 9 28% 1537 67648 10298 54%
c d  6.43 18 118 0 20 5850 17 59163 11872 1.8 11 6 2 9 28% 1539 67617 10297 54%
c d  6.43 18 118 0 20 5850 17 59163 11871 1.8 11 6 2 9 28% 1537 67617 10296 54%
c u  6.46 18 118 0 20 5850 17 59163 9155 1.8 11 6 2 9 28% 1553 67617 10296 54%
c v  6.49 18 118 0 20 5850 17 59163 7572 1.8 11 6 2 9 28% 1553 67617 10296 54%
c w  6.51 18 118 0 20 5850 17 59163 7558 1.8 11 6 2 9 28% 1553 67617 10296 54%
c x  6.53 20 118 0 20 5850 17 59163 7558 1.8 11 6 2 9 28% 1555 67609 10296 54%
c =  6.71 20 118 0 20 5850 17 59163 7558 1.8 11 6 2 9 28% 1737 67532 10199 53%
c d  6.71 20 118 0 20 5850 17 59163 7370 1.8 11 6 2 9 28% 1531 67524 10199 53%
c t  6.72 20 118 0 20 5850 17 59163 7370 1.8 11 6 2 9 28% 1509 67524 10199 53%
c f  6.76 20 118 0 20 5850 17 59163 7370 1.8 11 6 2 9 28% 1514 67469 10207 53%
c c  6.79 20 118 0 20 5850 17 59163 7370 1.8 11 6 2 9 28% 1493 67464 10206 53%
c
c  seconds   switched     rate        size/glue tier1    binary         remaining
c         MB   reductions   conflicts       size  tier2     irredundant
c           level   restarts     redundant    glue   trail         variables
c
c d  6.79 20 118 0 20 5850 17 59163 7370 1.8 11 6 2 9 28% 1491 67464 10206 53%
c u  6.81 20 118 0 20 5850 17 59163 6976 1.8 11 6 2 9 28% 1492 67464 10206 53%
c v  6.84 20 118 0 20 5850 17 59163 6301 1.8 11 6 2 9 28% 1493 67464 10206 53%
c w  6.86 20 118 0 20 5850 17 59163 6285 1.8 11 6 2 9 28% 1493 67464 10206 53%
c t  6.86 20 118 0 20 5850 17 59163 6285 1.8 11 6 2 9 28% 1492 67464 10206 53%
c -  7.04 20 117 0 21 6093 17 62671 7805 1.8 11 6 2 9 28% 1507 67464 10206 53%
c i  7.08 20 117 0 21 6137 17 63440 8491 1.8 11 6 2 9 28% 1516 67464 10205 53%
c -  7.33 20 117 0 22 6478 17 67256 10036 1.8 11 6 2 8 28% 1520 67462 10205 53%
c o  7.55 20 116 0 22 6836 17 70482 13036 1.8 11 6 2 8 28% 1530 67460 10205 53%
c -  7.67 20 116 0 23 6965 17 71946 11862 1.8 11 6 2 8 27% 1543 67460 10205 53%
c -  7.95 20 115 0 24 7327 17 76742 13488 1.8 11 6 2 8 27% 1589 67454 10205 53%
c d  8.19 20 114 0 24 7647 16 80314 16728 1.8 11 6 2 8 27% 1574 67435 10186 53%
c d  8.19 20 114 0 24 7647 16 80314 16728 1.8 11 6 2 8 27% 1572 67435 10185 53%
c u  8.22 20 114 0 24 7647 16 80314 13386 1.8 11 6 2 8 27% 1593 67435 10185 53%
c v  8.27 20 114 0 24 7647 16 80314 11815 1.8 11 6 2 8 27% 1594 67435 10185 53%
c w  8.29 20 114 0 24 7647 16 80314 11785 1.8 11 6 2 8 27% 1594 67435 10185 53%
c =  8.46 20 114 0 24 7647 16 80314 11785 1.8 11 6 2 8 27% 1878 67410 10043 52%
c d  8.46 20 114 0 24 7647 16 80314 11491 1.8 11 6 2 8 27% 1567 67410 10043 52%
c t  8.47 20 114 0 24 7647 16 80314 11491 1.8 11 6 2 8 27% 1482 67410 10043 52%
c f  8.48 20 114 0 24 7647 16 80314 11491 1.8 11 6 2 8 27% 1493 67304 10057 52%
c
c  seconds   switched     rate         size/glue tier1    binary         remaining
c         MB   reductions   conflicts        size  tier2     irredundant
c           level   restarts      redundant    glue   trail         variables
c
c u  8.51 20 114 0 24 7647 16 80314 10997 1.8 11 6 2 8 27% 1500 67304 10057 52%
c v  8.55 20 114 0 24 7647 16 80314 9770 1.8 11 6 2 8 27% 1505 67304 10057 52%
c w  8.56 20 114 0 24 7647 16 80314 9730 1.8 11 6 2 8 27% 1505 67304 10057 52%
c x  8.60 20 114 0 24 7647 16 80314 9722 1.8 11 6 2 8 27% 1525 65901 10057 52%
c d  8.78 20 114 0 24 7647 16 80314 9720 1.8 11 6 2 8 27% 1522 65901 10055 52%
c t  8.78 20 114 0 24 7647 16 80314 9720 1.8 11 6 2 8 27% 1504 65901 10055 52%
c -  8.87 20 114 0 25 7744 16 81640 8988 1.8 11 6 2 8 27% 1508 65901 10055 52%
c i  8.98 20 114 0 25 7874 16 84051 11117 1.8 11 6 2 8 27% 1531 65899 10054 52%
c i  8.98 20 114 0 25 7874 16 84066 11126 1.8 11 6 2 8 27% 1531 65899 10053 52%
c -  9.12 20 114 0 26 8056 16 86640 11274 1.8 11 6 2 8 27% 1536 65898 10053 52%
c i  9.23 20 113 0 26 8217 16 88430 12917 1.8 11 6 2 8 27% 1545 65897 10049 52%
c -  9.40 20 112 0 27 8501 16 91740 13282 1.8 11 6 2 8 26% 1549 65895 10049 52%
c i  9.47 20 112 0 27 8621 16 93282 14638 1.8 11 6 2 8 26% 1561 65895 10048 52%
c i  9.56 20 111 0 27 8841 16 95028 16236 1.8 11 6 2 8 26% 1569 65895 10047 52%
c 2  9.61 20 111 0 27 8921 16 96214 17323 1.8 11 6 2 8 26% 1569 65895 10046 52%
c s  9.61 20 111 0 27 8921 16 96214 17323 1.8 11 6 2 8 26% 1576 65608 10046 52%
c e  9.70 20 111 0 27 8921 16 96214 17323 1.8 11 6 2 8 26% 1139 66723 9605 50%
c 2  9.70 20 111 0 27 8921 16 96214 17323 1.8 11 6 2 8 26% 1136 66723 9605 50%
c s  9.71 20 111 0 27 8921 16 96214 17323 1.8 11 6 2 8 26% 1140 66295 9605 50%
c e  9.72 20 111 0 27 8921 16 96214 17323 1.8 11 6 2 8 26% 1114 66363 9588 50%
c
c  seconds   switched     rate         size/glue tier1    binary        remaining
c         MB   reductions   conflicts        size  tier2     irredundant
c           level   restarts      redundant    glue   trail        variables
c
c ^  9.72 20 111 0 27 8921 16 96214 17323 1.8 11 6 2 8 26% 1114 66363 9588 50%
c -  9.75 20 110 0 28 8969 16 96936 12551 1.8 11 6 2 8 26% 1115 66363 9588 50%
c -  9.94 20 109 0 29 9324 15 102230 14700 1.8 11 6 2 8 25% 1139 66360 9588 50%
c c 10.09 20 108 0 29 9604 15 105044 17184 1.8 11 6 2 8 24% 1174 66239 9565 50%
c d 10.09 20 108 0 29 9604 15 105044 17080 1.8 11 6 2 8 24% 1128 66239 9565 50%
c u 10.13 20 108 0 29 9604 15 105044 13638 1.8 11 6 2 8 24% 1147 66239 9564 50%
c v 10.17 20 108 0 29 9604 15 105044 12571 1.8 11 6 2 8 24% 1148 66239 9564 50%
c w 10.19 20 108 0 29 9604 15 105044 12533 1.8 11 6 2 8 24% 1148 66239 9564 50%
c d 10.19 20 108 0 29 9604 15 105044 12469 1.8 11 6 2 8 24% 1138 66215 9558 50%
c d 10.20 20 108 0 29 9604 15 105044 12469 1.8 11 6 2 8 24% 1136 66215 9557 50%
c t 10.20 20 108 0 29 9604 15 105044 12469 1.8 11 6 2 8 24% 1123 66215 9557 50%
c f 10.23 20 108 0 29 9604 15 105044 12469 1.8 11 6 2 8 24% 1127 66174 9561 50%
c u 10.26 20 108 0 29 9604 15 105044 11663 1.8 11 6 2 8 24% 1139 66174 9561 50%
c v 10.29 20 108 0 29 9604 15 105044 10366 1.8 11 6 2 8 24% 1143 66174 9561 50%
c w 10.30 20 108 0 29 9604 15 105044 10339 1.8 11 6 2 8 24% 1143 66174 9561 50%
c x 10.33 20 108 0 29 9604 15 105044 10337 1.8 11 6 2 8 24% 1147 66130 9561 50%
c = 10.49 20 108 0 29 9604 15 105044 10337 1.8 11 6 2 8 24% 1211 66117 9529 50%
c d 10.49 20 108 0 29 9604 15 105044 10273 1.8 11 6 2 8 24% 1137 66117 9528 50%
c t 10.50 20 108 0 29 9604 15 105044 10273 1.8 11 6 2 8 24% 1123 66117 9528 50%
c f 10.51 20 108 0 29 9604 15 105044 10273 1.8 11 6 2 8 24% 1125 66105 9529 50%
c
c  seconds   switched     rate          size/glue tier1    binary        remaining
c         MB   reductions   conflicts         size  tier2     irredundant
c           level   restarts       redundant    glue   trail        variables
c
c i 10.51 20 108 0 29 9604 15 105044 10273 1.8 11 6 2 8 24% 1125 66105 9529 50%
c - 10.58 20 106 0 30 9689 15 107615 10600 1.8 11 6 2 8 24% 1152 66104 9529 50%
c o 10.68 20 105 0 30 9875 15 110483 13190 1.8 11 6 2 8 24% 1167 66103 9529 50%
c i 10.69 20 105 0 30 9892 15 110774 13418 1.8 11 6 2 8 24% 1176 66103 9528 50%
c i 10.75 20 105 0 30 9985 15 112079 14614 1.8 11 6 2 8 24% 1180 66102 9527 50%
c - 10.80 20 105 0 31 10094 15 113093 13032 1.8 11 6 2 8 23% 1170 66102 9527 50%
c i 10.89 20 104 0 31 10280 14 115683 15289 1.8 11 6 2 8 23% 1196 66101 9524 50%
c - 11.00 20 102 0 32 10514 14 118661 15011 1.8 11 6 2 8 23% 1205 66100 9524 50%
c i 11.06 20 101 0 32 10613 14 121326 17297 1.8 11 6 2 8 22% 1243 66100 9523 50%
c i 11.09 20 100 0 32 10651 14 122368 18172 1.8 11 6 2 8 22% 1256 66100 9522 50%
c i 11.10 20 100 0 32 10676 14 123129 18809 1.8 11 6 2 8 22% 1277 66100 9521 50%
c i 11.10 20 100 0 32 10676 14 123182 18844 1.8 11 6 2 8 22% 1281 66100 9518 50%
c i 11.10 20 99 0 32 10679 14 123293 18924 1.8 11 6 2 8 22% 1290 66100 9517 50%
c i 11.11 20 99 0 32 10690 14 123921 19428 1.8 11 6 2 8 22% 1301 66100 9516 50%
c i 11.12 20 99 0 32 10693 14 124012 19494 1.8 11 6 2 8 22% 1306 66100 9514 49%
c i 11.12 20 99 0 32 10693 14 124082 19535 1.8 11 6 2 8 22% 1309 66100 9513 49%
c - 11.12 20 98 0 33 10693 14 124319 16238 1.8 11 6 2 7 21% 1275 66100 9513 49%
c i 11.13 20 98 0 33 10696 14 124668 16551 1.8 11 6 2 7 21% 1275 66100 9512 49%
c i 11.13 20 98 0 33 10696 14 124786 16636 1.8 11 6 2 7 21% 1279 66100 9499 49%
c i 11.13 20 98 0 33 10696 14 124787 16636 1.8 11 6 2 7 21% 1279 66100 9498 49%
c
c  seconds  switched      rate          size/glue tier1    binary        remaining
c         MB  reductions    conflicts         size  tier2     irredundant
c          level   restarts        redundant    glue   trail        variables
c
c i 11.13 20 98 0 33 10696 14 124837 16662 1.8 11 6 2 7 21% 1283 66100 9489 49%
c i 11.13 20 98 0 33 10696 14 124841 16664 1.8 11 6 2 7 21% 1284 66100 9488 49%
c i 11.13 20 98 0 33 10696 14 124844 16664 1.8 11 6 2 7 21% 1285 66100 9485 49%
c i 11.13 20 98 0 33 10696 14 124846 16664 1.8 11 6 2 7 21% 1286 66100 9484 49%
c } 11.13 20 98 0 33 10696 14 124848 16664 1.8 11 6 2 7 21% 1286 66100 9450 49%
c 0 11.13 20 98 0 33 10696 14 124848 16664 1.8 11 6 2 7 21% 1286 66100 9450 49%
c
c ---- [ result ] ------------------------------------------------------------
c
s UNSATISFIABLE
c
c ---- [ profiling ] ---------------------------------------------------------
c
c           7.72   69.36 %  search
c           7.72   69.36 %  focused
c           3.24   29.13 %  simplify
c           2.82   25.35 %  probe
c           1.09    9.81 %  vivify
c           0.91    8.20 %  sweep
c           0.51    4.59 %  eliminate
c           0.32    2.85 %  factor
c           0.23    2.08 %  congruence
c           0.20    1.82 %  substitute
c           0.15    1.32 %  preprocess
c           0.09    0.83 %  reduce
c           0.07    0.63 %  subsume
c           0.05    0.48 %  fastel
c           0.04    0.39 %  transitive
c           0.02    0.19 %  backbone
c           0.01    0.10 %  parse
c           0.01    0.08 %  lucky
c =============================================
c          11.13  100.00 %  total
c
c ---- [ statistics ] --------------------------------------------------------
c
c chronological:                         1766                1 %  conflicts
c conflicts:                           124848            11216.74 per second
c congruent:                              220                1 %  variables
c decisions:                          1759428               14.09 per conflict
c eliminated:                           10649               55 %  variables
c factored:                              1587                8 %  variables
c fast_eliminated:                       5500               52 %  eliminated
c fast_strengthened:                      160               14 %  per strengthened
c fast_subsumed:                           86                5 %  per subsumed
c iterations:                              39                0 %  variables
c propagations:                      56430265          5069875    per second
c reductions:                              33             3783    interval
c reordered:                                5            24970    interval
c restarts:                             10696               12    interval
c strengthened:                          1158                0 %  checks
c substituted:                            573                3 %  variables
c subsumed:                              1824                0 %  checks
c switched:                                 0                0    interval
c vivified:                             43769               21 %  checks
c
c ---- [ glue usage ] --------------------------------------------------------
c
c focused glue 2   used 58936 clauses 30.12% accumulated 60.01% tier1
c focused glue 3   used 25146 clauses 12.85% accumulated 72.87%
c focused glue 4-5 used 21606 clauses 11.04% accumulated 83.91%
c focused glue 6   used  7257 clauses  3.71% accumulated 87.62%
c focused glue 7   used  5751 clauses  2.94% accumulated 90.56% tier2
c
c ---- [ resources ] ---------------------------------------------------------
c
c maximum-resident-set-size:         22970368 bytes         22 MB
c process-time:                            11s              11.13 seconds
c
c ---- [ shutting down ] -----------------------------------------------------
c
c exit 20
